c *********************************
c * Circuit generated by BenCGen
c *
c * Parity_74
c *
c * Ports with 1 gate(s): 1
c * Ports with 2 gate(s): 74
c * Total gates: 75
c *********************************
p cnf 149 297
1 77 0
-1 -77 0
1 -76 0
77 -76 0
-1 -77 76 0
1 2 -78 0
-1 2 78 0
1 -2 78 0
-1 -2 -78 0
3 4 -79 0
-3 4 79 0
3 -4 79 0
-3 -4 -79 0
5 6 -80 0
-5 6 80 0
5 -6 80 0
-5 -6 -80 0
7 8 -81 0
-7 8 81 0
7 -8 81 0
-7 -8 -81 0
9 10 -82 0
-9 10 82 0
9 -10 82 0
-9 -10 -82 0
11 12 -83 0
-11 12 83 0
11 -12 83 0
-11 -12 -83 0
13 14 -84 0
-13 14 84 0
13 -14 84 0
-13 -14 -84 0
15 16 -85 0
-15 16 85 0
15 -16 85 0
-15 -16 -85 0
17 18 -86 0
-17 18 86 0
17 -18 86 0
-17 -18 -86 0
19 20 -87 0
-19 20 87 0
19 -20 87 0
-19 -20 -87 0
21 22 -88 0
-21 22 88 0
21 -22 88 0
-21 -22 -88 0
23 24 -89 0
-23 24 89 0
23 -24 89 0
-23 -24 -89 0
25 26 -90 0
-25 26 90 0
25 -26 90 0
-25 -26 -90 0
27 28 -91 0
-27 28 91 0
27 -28 91 0
-27 -28 -91 0
29 30 -92 0
-29 30 92 0
29 -30 92 0
-29 -30 -92 0
31 32 -93 0
-31 32 93 0
31 -32 93 0
-31 -32 -93 0
33 34 -94 0
-33 34 94 0
33 -34 94 0
-33 -34 -94 0
35 36 -95 0
-35 36 95 0
35 -36 95 0
-35 -36 -95 0
37 38 -96 0
-37 38 96 0
37 -38 96 0
-37 -38 -96 0
39 40 -97 0
-39 40 97 0
39 -40 97 0
-39 -40 -97 0
41 42 -98 0
-41 42 98 0
41 -42 98 0
-41 -42 -98 0
43 44 -99 0
-43 44 99 0
43 -44 99 0
-43 -44 -99 0
45 46 -100 0
-45 46 100 0
45 -46 100 0
-45 -46 -100 0
47 48 -101 0
-47 48 101 0
47 -48 101 0
-47 -48 -101 0
49 50 -102 0
-49 50 102 0
49 -50 102 0
-49 -50 -102 0
51 52 -103 0
-51 52 103 0
51 -52 103 0
-51 -52 -103 0
53 54 -104 0
-53 54 104 0
53 -54 104 0
-53 -54 -104 0
55 56 -105 0
-55 56 105 0
55 -56 105 0
-55 -56 -105 0
57 58 -106 0
-57 58 106 0
57 -58 106 0
-57 -58 -106 0
59 60 -107 0
-59 60 107 0
59 -60 107 0
-59 -60 -107 0
61 62 -108 0
-61 62 108 0
61 -62 108 0
-61 -62 -108 0
63 64 -109 0
-63 64 109 0
63 -64 109 0
-63 -64 -109 0
65 66 -110 0
-65 66 110 0
65 -66 110 0
-65 -66 -110 0
67 68 -111 0
-67 68 111 0
67 -68 111 0
-67 -68 -111 0
69 70 -112 0
-69 70 112 0
69 -70 112 0
-69 -70 -112 0
71 72 -113 0
-71 72 113 0
71 -72 113 0
-71 -72 -113 0
73 74 -114 0
-73 74 114 0
73 -74 114 0
-73 -74 -114 0
78 79 -115 0
-78 79 115 0
78 -79 115 0
-78 -79 -115 0
80 81 -116 0
-80 81 116 0
80 -81 116 0
-80 -81 -116 0
82 83 -117 0
-82 83 117 0
82 -83 117 0
-82 -83 -117 0
84 85 -118 0
-84 85 118 0
84 -85 118 0
-84 -85 -118 0
86 87 -119 0
-86 87 119 0
86 -87 119 0
-86 -87 -119 0
88 89 -120 0
-88 89 120 0
88 -89 120 0
-88 -89 -120 0
90 91 -121 0
-90 91 121 0
90 -91 121 0
-90 -91 -121 0
92 93 -122 0
-92 93 122 0
92 -93 122 0
-92 -93 -122 0
94 95 -123 0
-94 95 123 0
94 -95 123 0
-94 -95 -123 0
96 97 -124 0
-96 97 124 0
96 -97 124 0
-96 -97 -124 0
98 99 -125 0
-98 99 125 0
98 -99 125 0
-98 -99 -125 0
100 101 -126 0
-100 101 126 0
100 -101 126 0
-100 -101 -126 0
102 103 -127 0
-102 103 127 0
102 -103 127 0
-102 -103 -127 0
104 105 -128 0
-104 105 128 0
104 -105 128 0
-104 -105 -128 0
106 107 -129 0
-106 107 129 0
106 -107 129 0
-106 -107 -129 0
108 109 -130 0
-108 109 130 0
108 -109 130 0
-108 -109 -130 0
110 111 -131 0
-110 111 131 0
110 -111 131 0
-110 -111 -131 0
112 113 -132 0
-112 113 132 0
112 -113 132 0
-112 -113 -132 0
115 116 -133 0
-115 116 133 0
115 -116 133 0
-115 -116 -133 0
117 118 -134 0
-117 118 134 0
117 -118 134 0
-117 -118 -134 0
119 120 -135 0
-119 120 135 0
119 -120 135 0
-119 -120 -135 0
121 122 -136 0
-121 122 136 0
121 -122 136 0
-121 -122 -136 0
123 124 -137 0
-123 124 137 0
123 -124 137 0
-123 -124 -137 0
125 126 -138 0
-125 126 138 0
125 -126 138 0
-125 -126 -138 0
127 128 -139 0
-127 128 139 0
127 -128 139 0
-127 -128 -139 0
129 130 -140 0
-129 130 140 0
129 -130 140 0
-129 -130 -140 0
131 132 -141 0
-131 132 141 0
131 -132 141 0
-131 -132 -141 0
133 134 -142 0
-133 134 142 0
133 -134 142 0
-133 -134 -142 0
135 136 -143 0
-135 136 143 0
135 -136 143 0
-135 -136 -143 0
137 138 -144 0
-137 138 144 0
137 -138 144 0
-137 -138 -144 0
139 140 -145 0
-139 140 145 0
139 -140 145 0
-139 -140 -145 0
141 114 -146 0
-141 114 146 0
141 -114 146 0
-141 -114 -146 0
142 143 -147 0
-142 143 147 0
142 -143 147 0
-142 -143 -147 0
144 145 -148 0
-144 145 148 0
144 -145 148 0
-144 -145 -148 0
147 148 -149 0
-147 148 149 0
147 -148 149 0
-147 -148 -149 0
149 146 -75 0
-149 146 75 0
149 -146 75 0
-149 -146 -75 0
